% demand
num_movements = 25;
loading_factor = [2000, 1800, 1650, 800, 1050, 800, 1100, 1050, 1400, 800, 1300, 800, 1950, 1750, 1750, 1000, 1200, 1050, 1350, 1800, 1200, 800, 1150, 1400, 1050];
pickup_time = [0, 0, 2, 3, 3, 3, 3, 3, 3, 3, 4, 5, 6, 7, 7, 8, 8, 8, 10, 10, 11, 11, 11, 12, 12];
delivery_time = [1, 1, 3, 4, 6, 8, 4, 4, 8, 4, 10, 7, 7, 8, 10, 9, 10, 10, 14, 12, 12, 13, 12, 14, 13];

% transporter definition
total_capacity = 7000;
num_decks = 3;
capacity = [3000, 1000, 3000];

% ways out of decks
num_ways_out = 1;
paths_out = array3d(decks, ways_out, decks, [
% ways out of deck d1
2, 3, 0, 

% ways out of deck d2
3, 0, 0, 

% ways out of deck d3
0, 0, 0,	

]);

